c description: Random 2-CNF over 15 variables and 30 clauses
c generator: CNFgen (0.9.0)
c copyright: (C) 2012-2020 Massimo Lauria <massimo.lauria@uniroma1.it>
c url: https://massimolauria.net/cnfgen
c
p cnf 15 30
4 6 0
-10 15 0
-4 10 0
4 -12 0
-9 10 0
7 12 0
-3 -8 0
1 -7 0
11 -15 0
-8 -14 0
-1 -9 0
-3 9 0
9 12 0
5 6 0
1 10 0
-1 -5 0
-6 -9 0
-1 -6 0
4 -10 0
2 14 0
-2 -10 0
-7 12 0
4 11 0
-2 -7 0
-4 -7 0
-13 14 0
-4 7 0
10 -15 0
-2 3 0
7 -15 0